1000 100
458 102
206 248
155 193
247 65
111 124
469 69
483 142
459 144
211 220
15 470
213 225
128 132
339 171
345 16
162 120
302 389
54 410
482 10
133 273
89 418
223 308
59 319
62 388
147 496
182 221
233 329
155 103
469 453
74 260
409 446
408 17
137 242
269 427
351 34
349 35
430 421
453 68
474 48
145 365
156 5
164 125
83 269
83 37
21 397
36 312
35 335
249 200
419 163
177 279
362 199
366 9
472 48
372 394
266 248
210 395
127 143
270 5
261 344
322 84
271 212
181 338
32 213
168 64
87 377
482 189
372 3
252 271
369 156
399 85
242 419
140 154
395 35
477 129
85 200
306 152
138 113
128 457
252 169
372 83
244 17
49 350
381 234
80 235
430 154
134 319
131 409
27 423
431 340
330 231
152 260
318 150
460 301
128 48
387 30
480 44
394 243
75 497
277 367
218 388
425 380
